benchmarks/VRPTW/TSPTW/solution/n60w120.005.txt.solution
1 36 14 12 9 19 43 52 27 51 13 11 21 56 17 45 48 34 8 30 29 4 38 35 46 20 59 3 50 26 22 33 49 47 54 2 23 53 57 18 7 40 58 28 37 55 32 44 24 39 41 60 31 15 25 10 6 42 5 16 61 
547
